
        $ From http://www.csplib.org/Problems/prob009/data/helmut.pdf
        $ Problem number 36
        $ Sequence length : 24
        language ESSENCE' 1.0
        letting sizemaster be 292
        letting sizes be sequence(1,2,3,8,12,15,16,17,20,22,24,26,29,33,44,54,57,60,63,67,73,102,117,175)
        